solution status: optimal solution found
objective value:                                   68
u1_1_1                                              1 	(obj:3)
u2_1_9                                              1 	(obj:12)
u3_2_8                                              1 	(obj:13)
u4_1_7                                              1 	(obj:9)
u5_1_3                                              1 	(obj:5)
u6_2_4                                              1 	(obj:6)
u7_2_1                                              1 	(obj:4)
u8_2_13                                             1 	(obj:16)
